100
128
31
34
35
48
19
12
32
7
20
34
54
63
23
26
8
20
38
10
17
4
12
21
52
64
26
38
13
10
61
9
9
21
23
53
46
42
28
41
47
20
56
12
54
15
49
25
21
19
43
45
13
12
29
45
23
38
16
13
26
19
16
17
27
15
52
32
17
27
9
10
2
12
12
13
26
23
44
48
13
17
12
29
11
15
22
33
18
26
32
29
45
36
46
62
23
38
29
40
28
59